# Solution for model r5_t9_m0_4
# Finished Task: 9 / 9
# Makespan: 524.0, Total Distance: 467.0, Total Time: 0.0178
# R O S F
0 0 10 0.0 0.0
1 1 13 0.0 0.0
2 2 7 0.0 0.0
3 3 5 0.0 0.0
4 4 -1 0.0 0.0
5 3 -1 381.0 413.0
6 0 8 419.0 444.0
7 2 12 351.0 381.0
8 0 -1 488.0 524.0
9 1 11 358.0 387.0
10 0 6 323.0 351.0
11 1 -1 387.0 419.0
12 2 -1 449.0 488.0
13 1 9 112.0 133.0
